70
1 0 2
2 0 2
2 1 3
3 0 3
3 1 1
3 2 1
4 0 2
4 1 2
4 2 3
4 3 1
5 0 1
5 1 3
5 2 1
5 3 1
5 4 2
6 0 1
6 1 3
6 2 1
6 3 3
6 4 1
6 5 1
7 0 1
7 1 3
7 2 1
7 3 3
7 4 3
7 5 3
7 6 2
8 0 3
8 1 3
8 2 2
8 3 3
8 4 1
8 5 1
8 6 3
8 7 1
9 0 2
9 1 2
9 2 3
9 3 1
9 4 2
9 5 3
9 6 3
9 7 3
9 8 1
10 0 1
10 1 2
10 2 1
10 3 2
10 4 1
10 5 3
10 6 3
10 7 3
10 8 1
10 9 1
11 0 2
11 1 3
11 2 1
11 3 1
11 4 1
11 5 3
11 6 3
11 7 2
11 8 3
11 9 3
11 10 3
12 0 2
12 1 1
12 2 3
12 3 1
12 4 1
12 5 1
12 6 2
12 7 3
12 8 3
12 9 3
12 10 1
12 11 3
13 0 3
13 1 3
13 2 2
13 3 1
13 4 2
13 5 3
13 6 1
13 7 3
13 8 1
13 9 2
13 10 1
13 11 1
13 12 3
14 0 1
14 1 3
14 2 2
14 3 3
14 4 1
14 5 3
14 6 3
14 7 2
14 8 2
14 9 2
14 10 3
14 11 1
14 12 3
14 13 3
15 0 1
15 1 3
15 2 2
15 3 3
15 4 1
15 5 2
15 6 3
15 7 1
15 8 2
15 9 2
15 10 2
15 11 2
15 12 2
15 13 3
15 14 2
16 0 1
16 1 3
16 2 2
16 3 1
16 4 2
16 5 1
16 6 3
16 7 1
16 8 1
16 9 2
16 10 1
16 11 2
16 12 2
16 13 1
16 14 1
16 15 3
17 0 1
17 1 3
17 2 1
17 3 2
17 4 1
17 5 1
17 6 2
17 7 3
17 8 2
17 9 3
17 10 1
17 11 2
17 12 1
17 13 3
17 14 1
17 15 1
17 16 2
18 0 2
18 1 3
18 2 1
18 3 1
18 4 1
18 5 3
18 6 2
18 7 2
18 8 2
18 9 1
18 10 3
18 11 3
18 12 2
18 13 1
18 14 3
18 15 1
18 16 1
18 17 2
19 0 3
19 1 1
19 2 3
19 3 1
19 4 1
19 5 2
19 6 1
19 7 2
19 8 2
19 9 1
19 10 3
19 11 1
19 12 2
19 13 2
19 14 1
19 15 3
19 16 3
19 17 3
19 18 3
20 0 2
20 1 3
20 2 3
20 3 1
20 4 3
20 5 1
20 6 1
20 7 2
20 8 3
20 9 3
20 10 1
20 11 1
20 12 1
20 13 3
20 14 2
20 15 2
20 16 1
20 17 2
20 18 3
20 19 3
21 0 3
21 1 2
21 2 1
21 3 3
21 4 3
21 5 1
21 6 1
21 7 1
21 8 1
21 9 2
21 10 1
21 11 3
21 12 2
21 13 1
21 14 1
21 15 1
21 16 2
21 17 1
21 18 3
21 19 2
21 20 2
22 0 1
22 1 2
22 2 3
22 3 1
22 4 3
22 5 1
22 6 1
22 7 2
22 8 1
22 9 2
22 10 1
22 11 3
22 12 2
22 13 3
22 14 3
22 15 3
22 16 3
22 17 3
22 18 1
22 19 3
22 20 2
22 21 3
23 0 2
23 1 3
23 2 3
23 3 2
23 4 1
23 5 3
23 6 2
23 7 2
23 8 2
23 9 2
23 10 1
23 11 3
23 12 2
23 13 1
23 14 2
23 15 1
23 16 1
23 17 1
23 18 1
23 19 2
23 20 3
23 21 3
23 22 3
24 0 3
24 1 1
24 2 2
24 3 1
24 4 2
24 5 3
24 6 2
24 7 1
24 8 2
24 9 2
24 10 1
24 11 3
24 12 1
24 13 3
24 14 2
24 15 2
24 16 1
24 17 3
24 18 3
24 19 2
24 20 2
24 21 3
24 22 3
24 23 2
25 0 1
25 1 2
25 2 1
25 3 1
25 4 1
25 5 2
25 6 1
25 7 2
25 8 1
25 9 1
25 10 1
25 11 3
25 12 1
25 13 3
25 14 1
25 15 3
25 16 1
25 17 2
25 18 1
25 19 2
25 20 2
25 21 2
25 22 1
25 23 1
25 24 3
26 0 2
26 1 3
26 2 2
26 3 2
26 4 1
26 5 2
26 6 3
26 7 1
26 8 1
26 9 2
26 10 3
26 11 3
26 12 2
26 13 3
26 14 1
26 15 1
26 16 1
26 17 3
26 18 1
26 19 1
26 20 2
26 21 1
26 22 3
26 23 1
26 24 2
26 25 1
27 0 3
27 1 1
27 2 2
27 3 1
27 4 2
27 5 2
27 6 3
27 7 2
27 8 1
27 9 1
27 10 1
27 11 2
27 12 1
27 13 1
27 14 2
27 15 1
27 16 1
27 17 1
27 18 2
27 19 2
27 20 1
27 21 1
27 22 1
27 23 3
27 24 3
27 25 3
27 26 2
28 0 3
28 1 1
28 2 2
28 3 1
28 4 1
28 5 2
28 6 2
28 7 3
28 8 3
28 9 3
28 10 2
28 11 2
28 12 1
28 13 3
28 14 3
28 15 2
28 16 1
28 17 1
28 18 3
28 19 2
28 20 1
28 21 2
28 22 3
28 23 3
28 24 3
28 25 2
28 26 2
28 27 2
29 0 1
29 1 2
29 2 3
29 3 2
29 4 1
29 5 2
29 6 2
29 7 2
29 8 3
29 9 3
29 10 1
29 11 3
29 12 2
29 13 1
29 14 1
29 15 1
29 16 1
29 17 3
29 18 1
29 19 1
29 20 2
29 21 3
29 22 3
29 23 3
29 24 1
29 25 2
29 26 1
29 27 3
29 28 1
30 0 1
30 1 3
30 2 3
30 3 2
30 4 1
30 5 1
30 6 3
30 7 3
30 8 3
30 9 3
30 10 1
30 11 1
30 12 1
30 13 3
30 14 2
30 15 2
30 16 2
30 17 1
30 18 3
30 19 3
30 20 1
30 21 2
30 22 3
30 23 2
30 24 1
30 25 3
30 26 2
30 27 3
30 28 3
30 29 1
31 0 1
31 1 2
31 2 3
31 3 1
31 4 1
31 5 1
31 6 2
31 7 3
31 8 3
31 9 3
31 10 2
31 11 3
31 12 1
31 13 2
31 14 1
31 15 1
31 16 1
31 17 2
31 18 1
31 19 3
31 20 1
31 21 2
31 22 1
31 23 1
31 24 3
31 25 2
31 26 1
31 27 3
31 28 2
31 29 3
31 30 1
32 0 2
32 1 3
32 2 1
32 3 1
32 4 3
32 5 3
32 6 1
32 7 2
32 8 3
32 9 2
32 10 3
32 11 3
32 12 2
32 13 1
32 14 3
32 15 2
32 16 1
32 17 2
32 18 1
32 19 1
32 20 3
32 21 3
32 22 3
32 23 1
32 24 1
32 25 1
32 26 2
32 27 3
32 28 2
32 29 1
32 30 2
32 31 3
33 0 3
33 1 2
33 2 2
33 3 2
33 4 3
33 5 1
33 6 2
33 7 2
33 8 2
33 9 2
33 10 2
33 11 1
33 12 1
33 13 1
33 14 3
33 15 3
33 16 2
33 17 1
33 18 1
33 19 1
33 20 1
33 21 2
33 22 1
33 23 3
33 24 1
33 25 3
33 26 2
33 27 1
33 28 3
33 29 1
33 30 1
33 31 1
33 32 1
34 0 2
34 1 2
34 2 2
34 3 3
34 4 2
34 5 1
34 6 1
34 7 3
34 8 3
34 9 1
34 10 3
34 11 2
34 12 1
34 13 2
34 14 2
34 15 3
34 16 2
34 17 3
34 18 2
34 19 2
34 20 1
34 21 3
34 22 1
34 23 2
34 24 3
34 25 1
34 26 3
34 27 2
34 28 3
34 29 1
34 30 1
34 31 1
34 32 2
34 33 2
35 0 3
35 1 2
35 2 2
35 3 1
35 4 1
35 5 1
35 6 1
35 7 2
35 8 1
35 9 3
35 10 2
35 11 3
35 12 3
35 13 1
35 14 3
35 15 2
35 16 2
35 17 2
35 18 1
35 19 2
35 20 3
35 21 1
35 22 2
35 23 1
35 24 2
35 25 3
35 26 2
35 27 3
35 28 2
35 29 1
35 30 1
35 31 2
35 32 2
35 33 3
35 34 3
36 0 1
36 1 2
36 2 2
36 3 1
36 4 3
36 5 1
36 6 2
36 7 1
36 8 1
36 9 1
36 10 3
36 11 3
36 12 2
36 13 2
36 14 1
36 15 2
36 16 3
36 17 3
36 18 2
36 19 2
36 20 3
36 21 2
36 22 2
36 23 3
36 24 1
36 25 1
36 26 2
36 27 2
36 28 2
36 29 2
36 30 2
36 31 2
36 32 2
36 33 3
36 34 3
36 35 3
37 0 3
37 1 3
37 2 1
37 3 3
37 4 3
37 5 1
37 6 3
37 7 3
37 8 3
37 9 2
37 10 2
37 11 1
37 12 3
37 13 1
37 14 1
37 15 2
37 16 2
37 17 1
37 18 1
37 19 1
37 20 2
37 21 1
37 22 1
37 23 3
37 24 3
37 25 1
37 26 3
37 27 1
37 28 3
37 29 1
37 30 3
37 31 1
37 32 3
37 33 3
37 34 1
37 35 2
37 36 1
38 0 2
38 1 2
38 2 3
38 3 2
38 4 2
38 5 3
38 6 2
38 7 2
38 8 3
38 9 1
38 10 3
38 11 3
38 12 1
38 13 2
38 14 2
38 15 3
38 16 2
38 17 3
38 18 3
38 19 2
38 20 2
38 21 2
38 22 2
38 23 1
38 24 1
38 25 1
38 26 1
38 27 2
38 28 1
38 29 2
38 30 3
38 31 2
38 32 3
38 33 2
38 34 2
38 35 1
38 36 1
38 37 1
39 0 2
39 1 1
39 2 2
39 3 3
39 4 1
39 5 3
39 6 2
39 7 3
39 8 2
39 9 1
39 10 3
39 11 2
39 12 2
39 13 1
39 14 3
39 15 3
39 16 1
39 17 3
39 18 2
39 19 1
39 20 3
39 21 3
39 22 1
39 23 1
39 24 1
39 25 2
39 26 3
39 27 3
39 28 3
39 29 3
39 30 1
39 31 2
39 32 2
39 33 2
39 34 1
39 35 2
39 36 1
39 37 3
39 38 2
40 0 1
40 1 3
40 2 2
40 3 1
40 4 1
40 5 2
40 6 1
40 7 2
40 8 1
40 9 3
40 10 3
40 11 1
40 12 2
40 13 2
40 14 2
40 15 3
40 16 2
40 17 1
40 18 3
40 19 2
40 20 2
40 21 1
40 22 3
40 23 3
40 24 3
40 25 1
40 26 3
40 27 1
40 28 2
40 29 1
40 30 2
40 31 2
40 32 1
40 33 2
40 34 2
40 35 3
40 36 3
40 37 3
40 38 1
40 39 1
41 0 1
41 1 2
41 2 2
41 3 2
41 4 2
41 5 1
41 6 2
41 7 2
41 8 3
41 9 3
41 10 1
41 11 2
41 12 1
41 13 3
41 14 2
41 15 2
41 16 3
41 17 2
41 18 3
41 19 1
41 20 1
41 21 3
41 22 2
41 23 2
41 24 3
41 25 3
41 26 3
41 27 1
41 28 2
41 29 2
41 30 1
41 31 1
41 32 1
41 33 1
41 34 2
41 35 1
41 36 3
41 37 2
41 38 2
41 39 1
41 40 3
42 0 1
42 1 2
42 2 1
42 3 3
42 4 1
42 5 2
42 6 1
42 7 3
42 8 3
42 9 2
42 10 2
42 11 2
42 12 2
42 13 3
42 14 1
42 15 3
42 16 3
42 17 1
42 18 2
42 19 3
42 20 3
42 21 3
42 22 2
42 23 1
42 24 1
42 25 1
42 26 3
42 27 3
42 28 2
42 29 2
42 30 2
42 31 2
42 32 3
42 33 1
42 34 2
42 35 3
42 36 2
42 37 1
42 38 2
42 39 2
42 40 1
42 41 1
43 0 1
43 1 3
43 2 2
43 3 1
43 4 1
43 5 3
43 6 2
43 7 2
43 8 1
43 9 3
43 10 3
43 11 1
43 12 1
43 13 2
43 14 2
43 15 2
43 16 2
43 17 2
43 18 3
43 19 1
43 20 1
43 21 1
43 22 3
43 23 2
43 24 3
43 25 3
43 26 1
43 27 2
43 28 2
43 29 2
43 30 1
43 31 2
43 32 2
43 33 1
43 34 3
43 35 1
43 36 2
43 37 3
43 38 1
43 39 3
43 40 1
43 41 1
43 42 1
44 0 3
44 1 1
44 2 1
44 3 3
44 4 1
44 5 3
44 6 1
44 7 3
44 8 2
44 9 1
44 10 2
44 11 2
44 12 2
44 13 2
44 14 1
44 15 2
44 16 3
44 17 2
44 18 3
44 19 3
44 20 2
44 21 3
44 22 2
44 23 1
44 24 1
44 25 1
44 26 3
44 27 1
44 28 2
44 29 2
44 30 1
44 31 2
44 32 2
44 33 3
44 34 2
44 35 1
44 36 1
44 37 2
44 38 3
44 39 3
44 40 1
44 41 1
44 42 2
44 43 1
45 0 3
45 1 1
45 2 2
45 3 3
45 4 3
45 5 3
45 6 3
45 7 1
45 8 2
45 9 1
45 10 2
45 11 3
45 12 1
45 13 3
45 14 1
45 15 3
45 16 1
45 17 1
45 18 1
45 19 3
45 20 3
45 21 1
45 22 3
45 23 3
45 24 3
45 25 1
45 26 1
45 27 1
45 28 3
45 29 1
45 30 1
45 31 1
45 32 2
45 33 1
45 34 3
45 35 1
45 36 2
45 37 2
45 38 2
45 39 3
45 40 2
45 41 2
45 42 3
45 43 2
45 44 3
46 0 2
46 1 3
46 2 3
46 3 3
46 4 1
46 5 1
46 6 2
46 7 2
46 8 2
46 9 2
46 10 1
46 11 3
46 12 2
46 13 1
46 14 3
46 15 3
46 16 3
46 17 1
46 18 3
46 19 3
46 20 2
46 21 2
46 22 1
46 23 2
46 24 3
46 25 1
46 26 1
46 27 3
46 28 1
46 29 1
46 30 2
46 31 2
46 32 1
46 33 2
46 34 1
46 35 2
46 36 3
46 37 1
46 38 1
46 39 1
46 40 3
46 41 2
46 42 3
46 43 1
46 44 1
46 45 2
47 0 2
47 1 2
47 2 2
47 3 2
47 4 2
47 5 2
47 6 2
47 7 1
47 8 1
47 9 1
47 10 1
47 11 3
47 12 2
47 13 3
47 14 3
47 15 2
47 16 1
47 17 3
47 18 2
47 19 3
47 20 1
47 21 1
47 22 2
47 23 2
47 24 2
47 25 3
47 26 2
47 27 3
47 28 3
47 29 1
47 30 1
47 31 2
47 32 3
47 33 3
47 34 1
47 35 3
47 36 2
47 37 1
47 38 2
47 39 3
47 40 3
47 41 3
47 42 1
47 43 2
47 44 3
47 45 2
47 46 2
48 0 3
48 1 2
48 2 2
48 3 1
48 4 2
48 5 3
48 6 3
48 7 1
48 8 1
48 9 2
48 10 2
48 11 3
48 12 3
48 13 3
48 14 1
48 15 2
48 16 3
48 17 1
48 18 1
48 19 3
48 20 2
48 21 2
48 22 2
48 23 3
48 24 1
48 25 1
48 26 1
48 27 2
48 28 3
48 29 3
48 30 2
48 31 1
48 32 2
48 33 3
48 34 3
48 35 1
48 36 2
48 37 1
48 38 1
48 39 3
48 40 1
48 41 2
48 42 2
48 43 1
48 44 1
48 45 3
48 46 2
48 47 2
49 0 2
49 1 1
49 2 3
49 3 1
49 4 3
49 5 1
49 6 1
49 7 2
49 8 2
49 9 2
49 10 1
49 11 1
49 12 1
49 13 1
49 14 1
49 15 1
49 16 2
49 17 2
49 18 3
49 19 3
49 20 1
49 21 3
49 22 1
49 23 3
49 24 3
49 25 2
49 26 1
49 27 1
49 28 2
49 29 1
49 30 1
49 31 2
49 32 3
49 33 1
49 34 3
49 35 1
49 36 2
49 37 2
49 38 1
49 39 1
49 40 1
49 41 1
49 42 1
49 43 1
49 44 3
49 45 1
49 46 2
49 47 1
49 48 1
50 0 3
50 1 2
50 2 3
50 3 3
50 4 3
50 5 1
50 6 3
50 7 2
50 8 1
50 9 3
50 10 1
50 11 2
50 12 1
50 13 1
50 14 1
50 15 3
50 16 1
50 17 3
50 18 3
50 19 2
50 20 3
50 21 3
50 22 1
50 23 1
50 24 2
50 25 1
50 26 1
50 27 2
50 28 2
50 29 2
50 30 1
50 31 2
50 32 2
50 33 3
50 34 1
50 35 1
50 36 2
50 37 1
50 38 3
50 39 3
50 40 3
50 41 3
50 42 1
50 43 1
50 44 2
50 45 1
50 46 2
50 47 1
50 48 3
50 49 2
51 0 1
51 1 3
51 2 2
51 3 3
51 4 1
51 5 1
51 6 3
51 7 3
51 8 1
51 9 2
51 10 1
51 11 1
51 12 2
51 13 2
51 14 1
51 15 3
51 16 3
51 17 1
51 18 2
51 19 3
51 20 1
51 21 3
51 22 2
51 23 3
51 24 1
51 25 2
51 26 2
51 27 3
51 28 3
51 29 1
51 30 1
51 31 2
51 32 1
51 33 3
51 34 2
51 35 3
51 36 1
51 37 2
51 38 1
51 39 2
51 40 1
51 41 1
51 42 3
51 43 2
51 44 3
51 45 1
51 46 2
51 47 3
51 48 2
51 49 2
51 50 3
52 0 2
52 1 2
52 2 3
52 3 3
52 4 1
52 5 2
52 6 3
52 7 1
52 8 2
52 9 1
52 10 1
52 11 3
52 12 2
52 13 3
52 14 3
52 15 1
52 16 3
52 17 2
52 18 1
52 19 1
52 20 1
52 21 3
52 22 2
52 23 1
52 24 3
52 25 3
52 26 2
52 27 3
52 28 2
52 29 3
52 30 1
52 31 3
52 32 3
52 33 1
52 34 1
52 35 2
52 36 3
52 37 3
52 38 1
52 39 2
52 40 2
52 41 1
52 42 2
52 43 1
52 44 3
52 45 1
52 46 2
52 47 2
52 48 3
52 49 2
52 50 1
52 51 1
53 0 2
53 1 2
53 2 1
53 3 3
53 4 2
53 5 2
53 6 1
53 7 3
53 8 2
53 9 2
53 10 2
53 11 3
53 12 2
53 13 3
53 14 1
53 15 2
53 16 2
53 17 1
53 18 1
53 19 3
53 20 1
53 21 3
53 22 1
53 23 1
53 24 2
53 25 1
53 26 2
53 27 2
53 28 3
53 29 3
53 30 3
53 31 3
53 32 2
53 33 2
53 34 1
53 35 2
53 36 3
53 37 3
53 38 2
53 39 2
53 40 1
53 41 1
53 42 2
53 43 2
53 44 3
53 45 1
53 46 2
53 47 2
53 48 3
53 49 1
53 50 2
53 51 1
53 52 3
54 0 1
54 1 1
54 2 3
54 3 1
54 4 3
54 5 1
54 6 1
54 7 2
54 8 1
54 9 2
54 10 1
54 11 1
54 12 2
54 13 2
54 14 2
54 15 2
54 16 3
54 17 1
54 18 2
54 19 2
54 20 3
54 21 1
54 22 3
54 23 3
54 24 1
54 25 2
54 26 2
54 27 3
54 28 3
54 29 1
54 30 3
54 31 3
54 32 1
54 33 1
54 34 1
54 35 2
54 36 3
54 37 2
54 38 3
54 39 1
54 40 1
54 41 3
54 42 2
54 43 3
54 44 2
54 45 2
54 46 3
54 47 1
54 48 2
54 49 1
54 50 3
54 51 2
54 52 1
54 53 3
55 0 3
55 1 3
55 2 1
55 3 3
55 4 3
55 5 3
55 6 3
55 7 3
55 8 3
55 9 3
55 10 1
55 11 3
55 12 3
55 13 2
55 14 2
55 15 1
55 16 2
55 17 3
55 18 1
55 19 1
55 20 2
55 21 3
55 22 1
55 23 1
55 24 2
55 25 1
55 26 2
55 27 2
55 28 3
55 29 1
55 30 2
55 31 2
55 32 1
55 33 3
55 34 2
55 35 1
55 36 1
55 37 3
55 38 2
55 39 3
55 40 2
55 41 2
55 42 2
55 43 2
55 44 1
55 45 2
55 46 3
55 47 1
55 48 2
55 49 2
55 50 1
55 51 3
55 52 1
55 53 3
55 54 3
56 0 3
56 1 2
56 2 1
56 3 2
56 4 1
56 5 2
56 6 1
56 7 3
56 8 3
56 9 2
56 10 3
56 11 2
56 12 2
56 13 2
56 14 2
56 15 2
56 16 3
56 17 2
56 18 3
56 19 2
56 20 3
56 21 2
56 22 1
56 23 2
56 24 2
56 25 3
56 26 1
56 27 2
56 28 3
56 29 1
56 30 1
56 31 3
56 32 2
56 33 1
56 34 3
56 35 2
56 36 2
56 37 1
56 38 1
56 39 3
56 40 1
56 41 3
56 42 3
56 43 2
56 44 3
56 45 2
56 46 1
56 47 2
56 48 3
56 49 3
56 50 1
56 51 2
56 52 3
56 53 2
56 54 3
56 55 2
57 0 1
57 1 3
57 2 2
57 3 3
57 4 3
57 5 1
57 6 2
57 7 3
57 8 1
57 9 3
57 10 3
57 11 1
57 12 3
57 13 1
57 14 1
57 15 1
57 16 1
57 17 2
57 18 3
57 19 2
57 20 3
57 21 2
57 22 3
57 23 3
57 24 3
57 25 2
57 26 1
57 27 1
57 28 2
57 29 2
57 30 3
57 31 3
57 32 2
57 33 3
57 34 2
57 35 1
57 36 2
57 37 1
57 38 2
57 39 2
57 40 1
57 41 1
57 42 2
57 43 1
57 44 1
57 45 3
57 46 2
57 47 2
57 48 3
57 49 1
57 50 2
57 51 1
57 52 2
57 53 2
57 54 1
57 55 1
57 56 3
58 0 2
58 1 2
58 2 2
58 3 3
58 4 1
58 5 1
58 6 2
58 7 1
58 8 3
58 9 3
58 10 1
58 11 3
58 12 3
58 13 1
58 14 3
58 15 3
58 16 3
58 17 2
58 18 1
58 19 3
58 20 1
58 21 3
58 22 3
58 23 2
58 24 1
58 25 3
58 26 3
58 27 3
58 28 3
58 29 1
58 30 1
58 31 1
58 32 3
58 33 3
58 34 1
58 35 3
58 36 3
58 37 1
58 38 1
58 39 2
58 40 3
58 41 1
58 42 3
58 43 2
58 44 1
58 45 2
58 46 3
58 47 3
58 48 3
58 49 1
58 50 3
58 51 1
58 52 2
58 53 3
58 54 2
58 55 2
58 56 3
58 57 1
59 0 3
59 1 3
59 2 2
59 3 2
59 4 3
59 5 3
59 6 2
59 7 2
59 8 3
59 9 1
59 10 3
59 11 1
59 12 2
59 13 1
59 14 1
59 15 3
59 16 2
59 17 3
59 18 1
59 19 1
59 20 2
59 21 2
59 22 1
59 23 1
59 24 1
59 25 3
59 26 2
59 27 3
59 28 2
59 29 1
59 30 3
59 31 3
59 32 3
59 33 3
59 34 2
59 35 1
59 36 2
59 37 3
59 38 3
59 39 3
59 40 2
59 41 2
59 42 3
59 43 3
59 44 2
59 45 1
59 46 3
59 47 2
59 48 3
59 49 1
59 50 3
59 51 3
59 52 1
59 53 2
59 54 2
59 55 3
59 56 2
59 57 2
59 58 2
60 0 1
60 1 2
60 2 1
60 3 3
60 4 3
60 5 2
60 6 2
60 7 3
60 8 3
60 9 3
60 10 3
60 11 1
60 12 1
60 13 2
60 14 3
60 15 3
60 16 3
60 17 1
60 18 2
60 19 3
60 20 2
60 21 2
60 22 3
60 23 1
60 24 3
60 25 1
60 26 1
60 27 1
60 28 1
60 29 2
60 30 3
60 31 3
60 32 2
60 33 1
60 34 1
60 35 2
60 36 3
60 37 1
60 38 1
60 39 3
60 40 2
60 41 3
60 42 1
60 43 1
60 44 2
60 45 1
60 46 2
60 47 1
60 48 1
60 49 1
60 50 3
60 51 3
60 52 2
60 53 3
60 54 1
60 55 2
60 56 3
60 57 1
60 58 1
60 59 1
61 0 3
61 1 2
61 2 3
61 3 3
61 4 3
61 5 1
61 6 2
61 7 1
61 8 2
61 9 3
61 10 2
61 11 1
61 12 3
61 13 2
61 14 2
61 15 3
61 16 2
61 17 3
61 18 1
61 19 2
61 20 2
61 21 1
61 22 3
61 23 1
61 24 1
61 25 1
61 26 2
61 27 1
61 28 2
61 29 1
61 30 2
61 31 2
61 32 2
61 33 1
61 34 2
61 35 3
61 36 1
61 37 3
61 38 2
61 39 3
61 40 2
61 41 2
61 42 2
61 43 3
61 44 2
61 45 2
61 46 1
61 47 3
61 48 3
61 49 1
61 50 3
61 51 2
61 52 2
61 53 1
61 54 1
61 55 1
61 56 1
61 57 2
61 58 2
61 59 3
61 60 1
62 0 3
62 1 2
62 2 3
62 3 3
62 4 2
62 5 3
62 6 3
62 7 1
62 8 2
62 9 2
62 10 2
62 11 1
62 12 1
62 13 2
62 14 1
62 15 3
62 16 3
62 17 2
62 18 1
62 19 2
62 20 3
62 21 3
62 22 1
62 23 2
62 24 2
62 25 2
62 26 2
62 27 3
62 28 3
62 29 3
62 30 2
62 31 3
62 32 1
62 33 1
62 34 3
62 35 3
62 36 1
62 37 1
62 38 3
62 39 2
62 40 2
62 41 1
62 42 1
62 43 3
62 44 2
62 45 3
62 46 3
62 47 2
62 48 1
62 49 1
62 50 3
62 51 3
62 52 2
62 53 1
62 54 3
62 55 1
62 56 3
62 57 2
62 58 3
62 59 1
62 60 2
62 61 3
63 0 3
63 1 2
63 2 2
63 3 1
63 4 2
63 5 3
63 6 2
63 7 3
63 8 2
63 9 3
63 10 2
63 11 3
63 12 2
63 13 1
63 14 1
63 15 2
63 16 2
63 17 2
63 18 3
63 19 1
63 20 1
63 21 1
63 22 1
63 23 2
63 24 1
63 25 2
63 26 2
63 27 3
63 28 2
63 29 3
63 30 2
63 31 1
63 32 1
63 33 1
63 34 2
63 35 1
63 36 3
63 37 3
63 38 1
63 39 3
63 40 2
63 41 3
63 42 1
63 43 1
63 44 2
63 45 2
63 46 2
63 47 2
63 48 1
63 49 1
63 50 3
63 51 2
63 52 3
63 53 3
63 54 1
63 55 3
63 56 3
63 57 3
63 58 2
63 59 2
63 60 1
63 61 2
63 62 1
64 0 3
64 1 3
64 2 3
64 3 3
64 4 1
64 5 2
64 6 2
64 7 1
64 8 3
64 9 3
64 10 2
64 11 1
64 12 1
64 13 3
64 14 1
64 15 2
64 16 3
64 17 3
64 18 3
64 19 3
64 20 1
64 21 1
64 22 3
64 23 3
64 24 3
64 25 2
64 26 3
64 27 3
64 28 2
64 29 1
64 30 1
64 31 1
64 32 3
64 33 3
64 34 2
64 35 1
64 36 2
64 37 2
64 38 1
64 39 2
64 40 1
64 41 2
64 42 3
64 43 2
64 44 1
64 45 1
64 46 2
64 47 3
64 48 3
64 49 2
64 50 1
64 51 2
64 52 2
64 53 1
64 54 3
64 55 1
64 56 2
64 57 2
64 58 1
64 59 1
64 60 2
64 61 3
64 62 2
64 63 2
65 0 2
65 1 1
65 2 3
65 3 1
65 4 2
65 5 2
65 6 1
65 7 3
65 8 1
65 9 3
65 10 3
65 11 3
65 12 3
65 13 3
65 14 2
65 15 1
65 16 2
65 17 1
65 18 3
65 19 2
65 20 2
65 21 1
65 22 2
65 23 3
65 24 3
65 25 3
65 26 1
65 27 3
65 28 2
65 29 1
65 30 2
65 31 2
65 32 2
65 33 3
65 34 1
65 35 3
65 36 2
65 37 3
65 38 3
65 39 2
65 40 1
65 41 1
65 42 1
65 43 2
65 44 3
65 45 1
65 46 2
65 47 1
65 48 1
65 49 3
65 50 1
65 51 3
65 52 2
65 53 3
65 54 3
65 55 2
65 56 1
65 57 1
65 58 3
65 59 1
65 60 2
65 61 1
65 62 2
65 63 1
65 64 2
66 0 3
66 1 1
66 2 3
66 3 3
66 4 1
66 5 1
66 6 2
66 7 2
66 8 2
66 9 3
66 10 1
66 11 3
66 12 2
66 13 2
66 14 3
66 15 1
66 16 2
66 17 2
66 18 2
66 19 3
66 20 1
66 21 2
66 22 3
66 23 1
66 24 2
66 25 1
66 26 3
66 27 2
66 28 1
66 29 3
66 30 1
66 31 1
66 32 1
66 33 3
66 34 3
66 35 1
66 36 1
66 37 3
66 38 2
66 39 1
66 40 2
66 41 1
66 42 3
66 43 1
66 44 1
66 45 1
66 46 1
66 47 1
66 48 2
66 49 2
66 50 1
66 51 1
66 52 3
66 53 3
66 54 1
66 55 3
66 56 3
66 57 1
66 58 2
66 59 3
66 60 3
66 61 1
66 62 2
66 63 3
66 64 2
66 65 2
67 0 2
67 1 2
67 2 3
67 3 3
67 4 3
67 5 3
67 6 2
67 7 2
67 8 3
67 9 1
67 10 2
67 11 2
67 12 1
67 13 1
67 14 2
67 15 2
67 16 2
67 17 2
67 18 2
67 19 3
67 20 3
67 21 1
67 22 2
67 23 3
67 24 2
67 25 1
67 26 1
67 27 3
67 28 2
67 29 2
67 30 1
67 31 2
67 32 1
67 33 2
67 34 1
67 35 2
67 36 3
67 37 3
67 38 2
67 39 1
67 40 1
67 41 2
67 42 2
67 43 2
67 44 1
67 45 3
67 46 1
67 47 2
67 48 1
67 49 2
67 50 2
67 51 3
67 52 2
67 53 2
67 54 3
67 55 2
67 56 1
67 57 1
67 58 3
67 59 1
67 60 3
67 61 2
67 62 3
67 63 3
67 64 1
67 65 3
67 66 1
68 0 3
68 1 3
68 2 3
68 3 3
68 4 3
68 5 2
68 6 3
68 7 3
68 8 2
68 9 2
68 10 3
68 11 2
68 12 2
68 13 1
68 14 2
68 15 2
68 16 2
68 17 3
68 18 1
68 19 1
68 20 1
68 21 2
68 22 1
68 23 1
68 24 2
68 25 3
68 26 2
68 27 2
68 28 2
68 29 1
68 30 1
68 31 1
68 32 1
68 33 2
68 34 3
68 35 3
68 36 1
68 37 1
68 38 2
68 39 2
68 40 1
68 41 2
68 42 2
68 43 1
68 44 3
68 45 3
68 46 2
68 47 2
68 48 3
68 49 1
68 50 1
68 51 3
68 52 2
68 53 1
68 54 2
68 55 2
68 56 1
68 57 3
68 58 3
68 59 3
68 60 2
68 61 3
68 62 2
68 63 1
68 64 2
68 65 2
68 66 1
68 67 1
69 0 3
69 1 2
69 2 2
69 3 2
69 4 2
69 5 2
69 6 3
69 7 1
69 8 3
69 9 1
69 10 2
69 11 1
69 12 3
69 13 1
69 14 1
69 15 2
69 16 1
69 17 2
69 18 3
69 19 3
69 20 3
69 21 1
69 22 3
69 23 2
69 24 2
69 25 3
69 26 1
69 27 1
69 28 1
69 29 1
69 30 3
69 31 2
69 32 3
69 33 2
69 34 1
69 35 1
69 36 1
69 37 2
69 38 3
69 39 2
69 40 3
69 41 1
69 42 3
69 43 1
69 44 1
69 45 1
69 46 3
69 47 2
69 48 3
69 49 1
69 50 2
69 51 2
69 52 3
69 53 3
69 54 1
69 55 2
69 56 2
69 57 2
69 58 2
69 59 2
69 60 3
69 61 2
69 62 3
69 63 3
69 64 1
69 65 3
69 66 1
69 67 1
69 68 3
